sat-intances/6.param.solution
language ESSENCE' 1.0
letting actionFrom be [0, 2, 3, 2, 3, 3, 3, 2, 2, 3, 2, 0, 3, 2]
letting actionTo be [2, 3, 2, 3, 2, 2, 2, 3, 1, 2, 1, 2, 2, 1]
letting actionTypes be [1, 4, 5, 4, 5, 5, 5, 4, 2, 5, 2, 1, 5, 2]
letting pointers be [[0, 1, 1, 1, 1, 1, 1, 1, 1, 1, 1, 1, 2, 2, 2;int(0..14)], 
[0, 0, 0, 0, 0, 0, 0, 0, 0, 1, 1, 2, 2, 2, 3;int(0..14)];int(0..1)]
letting statePlaces be [[-1, 4, 4, 8, 8, 16, 24, 32, 32, 32, 64, 64, 8, 40, 40;int(0..14)], 
[-1, -1, 4, 4, 8, 8, 8, 8, 32, 32, 32, 32, 32, 32, 32;int(0..14)];int(2..3)]
